24
BuildMolecule
C       -1.2563822306        0.6745865336       -0.0436781440
C       -1.2307175718       -0.7267174252        0.0658924730
C        0.0109576461       -1.4056655749        0.1409957409
C        1.2288716695       -0.6841736372        0.0722885810
C        1.2063045511        0.7176596384       -0.0354720392
C       -0.0368616112        1.3974828337       -0.1099629306
O       -0.0567391857        2.6018270186       -0.2726718405
O        0.0319167805       -2.6105969271        0.3068214146
N        2.5120307033       -1.3214255449        0.1390424694
N        2.4729231574        1.3899030115       -0.1005921605
N       -2.5454145386        1.3020232658       -0.1185698705
N       -2.4923377858       -1.4070290024        0.1269398359
C        2.7067303763        2.6297650124        0.1671809436
C        2.9277140996       -2.5051795457       -0.1596288594
C       -2.7151730593       -2.6337615565       -0.2027962716
C       -2.8253377025        2.5350595880        0.1357663922
H        1.9574061331        3.3148107966        0.5373457460
H        2.2628059083       -3.3416291184       -0.3297812113
H       -1.9609823456       -3.2804325012       -0.6306077274
H       -2.1035124556        3.2519772076        0.5001516221
He       -4.2826245969        3.0286852581       -0.0072888113
He        4.1433163043        3.1840335992        0.0362602191
He        4.4273312683       -2.7853696721       -0.3809695212
He       -4.1301158534       -3.2339513983       -0.0787830154

