46
BuildMolecule
C        0.0076870739        0.7093221357        0.0022762738
C        0.0130720509       -0.6934504767        0.0071870077
C        1.2803016016       -1.5259512308       -0.0761080401
C        1.3134916844       -2.7825224814        0.5529958352
C        2.4207254666       -1.1190797350       -0.7905789014
C        3.5721445734       -1.9150671519       -0.8184560546
C        3.6015680582       -3.1542487306       -0.1564339602
C        2.4520086846       -3.5825296248        0.5200387917
C       -1.2619931730       -1.5115028778        0.0897466262
C       -1.3380401687       -2.7320411846       -0.6045326921
C       -2.4934671522       -3.5103740534       -0.5746943984
C       -3.6122543418       -3.0931507800        0.1574812939
C       -3.5374565243       -1.8951277951        0.8855532376
C       -2.3715942449       -1.1197761845        0.8613275663
C        1.2804859595        1.5358677045        0.0850143811
C        1.3279679313        2.7940981272       -0.5445871597
C        2.4750155463        3.5814190801       -0.5128669070
C        3.6211695346        3.1350627725        0.1541812607
C        3.5820397249        1.8989696954        0.8162631754
C        2.4204874607        1.1173555826        0.7909235267
C       -1.2753224433        1.5235125187       -0.0844900230
C       -2.4074881350        1.0795598194       -0.7876310679
C       -3.5809595318        1.8427128817       -0.8179603393
C       -3.6404310617        3.0875185740       -0.1690495982
C       -2.4975296473        3.5565561778        0.4911522669
C       -1.3345676528        2.7876926161        0.5306268280
H        0.4745941143       -3.1195932670        1.0506485809
H        2.4089672390       -0.2222236841       -1.3010051018
H        4.4069788525       -1.5887430177       -1.3299133945
H        2.4492942277       -4.4975581575        0.9972590573
H       -0.5224247734       -3.0575872875       -1.1465799522
H       -2.5250925570       -4.4005901158       -1.0957883742
H       -4.3480684850       -1.5834055887        1.4430128931
H       -2.3256490949       -0.2507098525        1.4159777263
H        0.4924696945        3.1407790982       -1.0413557318
H        2.4803347138        4.4996111944       -0.9839493490
H        4.4147076341        1.5634784373        1.3253146197
H        2.4016787785        0.2193318949        1.2990806360
H       -2.3738242912        0.1781311979       -1.2889465172
H       -4.4091740332        1.4879312528       -1.3211644015
H       -2.5161932094        4.4794718839        0.9525653033
H       -0.5023714534        3.1525621633        1.0198544801
He       -4.5691855149        3.6768410527       -0.1583726747
He       -4.5358177328       -3.6904121355        0.1398728751
He        4.5114724370       -3.7721949719       -0.1417271627
He        4.5392333104        3.7408468417        0.1405849376

