18
BuildMolecule
C       -0.6951527094       -2.3182583666        0.0000000000
C        0.6937397574       -2.3194637650        0.0000000000
C        1.3944268276       -1.1155289385       -0.0001032649
C        0.7153526886        0.1237858558        0.0000000000
C       -0.7146591798        0.1243620542       -0.0002784720
C       -1.3946449786       -1.1143404252        0.0001598206
C       -1.5265111008        1.3792117968        0.0000000000
C        1.5277107668        1.3780138874        0.0002341905
N       -2.8147643834        1.3164544061        0.0000000000
N        2.8148525990        1.3161740335        0.0000000000
H       -1.2354759342       -3.2563460572        0.0003772443
H        1.2326243662       -3.2576688687        0.0000000000
H        2.4761497768       -1.1546911370        0.0000000000
H       -2.4766993866       -1.1524221133        0.0000000000
H       -1.0519431930        2.3513978823       -0.0001527593
H        1.0528090668        2.3499161329        0.0002424496
He       -3.4473677560        2.2163504929        0.0000000000
He        3.4475404378        2.2160107528        0.0000000000

