86
BuildMolecule
C        0.0181861402        0.7187425944        0.0064113147
C        0.0254213343       -0.6840215756        0.0113560650
C        1.2936877490       -1.5148555809       -0.0727953567
C        1.3289683799       -2.7713645413        0.5563191678
C        2.4330792399       -1.1065029169       -0.7880678569
C        3.5855256966       -1.9009745426       -0.8167220678
C        3.6170396663       -3.1400978890       -0.1546871881
C        2.4685145139       -3.5698730173        0.5225941235
C       -1.2485082222       -1.5037496308        0.0948219117
C       -1.3234296800       -2.7244063160       -0.5993716548
C       -2.4778099804       -3.5042588332       -0.5687111559
C       -3.5966375031       -3.0884884645        0.1642289882
C       -3.5229121463       -1.8903477859        0.8922166442
C       -2.3580887445       -1.1134626299        0.8671616099
C        1.2899528038        1.5469654258        0.0882444971
C        1.3353416087        2.8052397500       -0.5414236818
C        2.4813734040        3.5940710247       -0.5105200800
C        3.6285763336        3.1492426101        0.1557451045
C        3.5915330601        1.9131175118        0.8178872617
C        2.4309935429        1.1299741542        0.7933741675
C       -1.2659540450        1.5312407377       -0.0794871314
C       -2.3980215873        1.0857783290       -0.7818309248
C       -3.5725174443        1.8473849763       -0.8113669481
C       -3.6331777718        3.0921293495       -0.1624486216
C       -2.4904373202        3.5626895801        0.4969478822
C       -1.3264369939        2.7953588568        0.5356366347
C       -4.8850068488        3.8841494095       -0.1472234953
C        4.8661298115        3.9681905915        0.1365200915
C        4.8444474251       -3.9713022123       -0.1356945111
C       -4.8402424897       -3.8950324874        0.1413836267
C        4.8482718463       -5.2232526057        0.5044561661
C        6.0069581359       -6.0005011058        0.5356945967
C        7.1775458774       -5.5317233693       -0.0649875288
C        7.1893382899       -4.2890860737       -0.7008847260
C        6.0260254786       -3.5118220618       -0.7409382193
C        4.8764632918        5.2267902042       -0.4897678659
C        6.0446041210        5.9926394604       -0.5253401963
C        7.2168492664        5.5054681020        0.0569415661
C        7.2199859104        4.2544940969        0.6793852999
C        6.0502913496        3.4895989933        0.7213646902
C       -4.9201208515        5.1468243647        0.4677352521
C       -6.0600840536        3.3750226798       -0.7256767462
C       -7.2459144136        4.1150681859       -0.6873920466
C       -7.2674271014        5.3710564458       -0.0762190569
C       -6.1041558153        5.8883221080        0.4987215650
C       -4.8924734287       -5.1002184838       -0.5800964882
C       -6.0687556895       -5.8535517569       -0.6197824172
C       -7.2067847614       -5.4067338062        0.0559878961
C       -7.1667819355       -4.2096849369        0.7750839525
C       -5.9895068443       -3.4566868824        0.8186831132
H        0.4908606033       -3.1095255169        1.0545625916
H        2.4197862153       -0.2096773245       -1.2985099714
H        4.4195745253       -1.5735657846       -1.3287670428
H        2.4673356165       -4.4848911768        0.9998407871
H       -0.5077624675       -3.0488934948       -1.1419756257
H       -2.5086247015       -4.3945304370       -1.0897590658
H       -4.3335471769       -1.5796775326        1.4502299422
H       -2.3129031780       -0.2443211258        1.4217563362
H        0.4990433821        3.1508066278       -1.0376220385
H        2.4851571169        4.5122563803       -0.9816308274
H        4.4249949245        1.5787368903        1.3263702216
H        2.4137194483        0.2319406294        1.3015684158
H       -2.3635187416        0.1843808666       -1.2831453655
H       -4.4006131142        1.4914992590       -1.3139870011
H       -2.5099958476        4.4855929077        0.9583489138
H       -0.4943828391        3.1613373487        1.0242772256
H        3.9870621351       -5.5702401342        0.9549464418
H        5.9988738256       -6.9209636691        1.0022857597
H        8.0560998508       -3.9433944601       -1.1416178709
H        6.0363329382       -2.5965147707       -1.2175201315
H        4.0141896823        5.5880189702       -0.9268285035
H        6.0411743676        6.9181805894       -0.9818331922
H        8.0867331415        3.8946495793        1.1086697751
H        6.0569449290        2.5676034895        1.1849421064
H       -4.0647945428        5.5297346748        0.8999627385
H       -6.0478244786        2.4492535195       -1.1815552001
H       -8.1059370729        3.7330516731       -1.1110055608
H       -6.1191824228        6.8180652465        0.9463552293
H       -4.0553245269       -5.4314088395       -1.0845949169
H       -6.0967137993       -6.7396212910       -1.1481034606
H       -8.0075621359       -3.8806521144        1.2749339862
H       -5.9650619762       -2.5734218492        1.3518522511
He       -8.1428728333        5.9168614764       -0.0494676286
He       -8.0768537663       -5.9607931244        0.0240160545
He        8.0352469148       -6.1050292648       -0.0386573049
He        8.0806570293        6.0693762372        0.0274837352

