12
COF-1.cif
C        1.3970209393        0.0753580991        0.0000000000
C        0.6332462593        1.2475239857        0.0000000000
C        0.7637703654       -1.1721688090        0.0000000000
C       -0.6332544403       -1.2475258764        0.0000000000
C       -0.7637681236        1.1721650798        0.0000000000
C       -1.3970090836       -0.0753539779        0.0000000000
H        2.4777889617        0.1336533315        0.0000000000
H       -1.1231530815       -2.2126346818        0.0000000000
H       -1.3546504456        2.0789773043        0.0000000000
He       -2.4777782711       -0.1336474897        0.0000000000
He        1.1231341073        2.2126507256        0.0000000000
He        1.3546336974       -2.0789967170        0.0000000000

