28
BuildMolecule
C       -0.6990954362       -2.8402897766        0.0001312258
C        0.6991514480       -2.8402897886        0.0000000000
C        1.4043313134       -1.6275279245        0.0000000000
C        0.7015653246       -0.4024030185       -0.0001300236
C       -0.7015863067       -0.4024165299        0.0000000000
C       -1.4042734036       -1.6274902138        0.0000000000
C       -2.7500475650        0.8137018752        0.0000000000
C       -2.8036802862       -1.6077193395        0.0001252629
C       -3.4809423479       -0.3871651313        0.0000000000
C        2.8037814042       -1.6077433683        0.0000000000
C        3.4810801947       -0.3871648227       -0.0001118627
C        2.7501107448        0.8136918228       -0.0001573186
C       -3.4237844804        2.1271796007       -0.0001203084
C        3.4236326360        2.1272281391        0.0000000000
N       -1.3895443053        0.7728903166       -0.0001645128
N       -4.7044879012        2.2170792308        0.0001411519
N        1.3895439534        0.7728860255       -0.0001921195
N        4.7043641999        2.2172570538        0.0003504022
H       -1.2303395199       -3.7846276069        0.0002608997
H        1.2303893636       -3.7846679397        0.0001343500
H       -3.3689021491       -2.5321427344        0.0002588444
H       -4.5636447365       -0.3801742553        0.0001426918
H        3.3690186114       -2.5321703418        0.0000000000
H        4.5637446941       -0.3801456562        0.0000000000
H       -2.8219968638        3.0321217629       -0.0003317736
H        2.8217528503        3.0320937524       -0.0001880115
He       -5.1629650857        3.1396691622        0.0001499949
He        5.1626584278        3.1400185813        0.0005216957

